(declare-fun a_ack!2012 () (_ BitVec 32))
(declare-fun b_ack!2007 () (_ BitVec 32))
(declare-fun c_ack!2008 () (_ BitVec 32))
(declare-fun d_ack!2009 () (_ BitVec 32))
(declare-fun e_ack!2010 () (_ BitVec 32))
(declare-fun f_ack!2011 () (_ BitVec 32))
(assert (not (bvslt a_ack!2012 #x00000000)))
(assert (not (bvslt b_ack!2007 #x00000000)))
(assert (not (bvslt c_ack!2008 #x00000000)))
(assert (not (bvslt b_ack!2007 #x00000000)))
(assert (not (bvslt (bvadd a_ack!2012 c_ack!2008) b_ack!2007)))
(assert (= #x00000000 (bvand (bvadd a_ack!2012 b_ack!2007 c_ack!2008) #x00000001)))
(assert (not (bvslt a_ack!2012 #x00000000)))
(assert (not (bvslt b_ack!2007 #x00000000)))
(assert (not (bvslt c_ack!2008 #x00000000)))
(assert (= #x00000000 (bvand (bvadd a_ack!2012 d_ack!2009) #x00000001)))
(assert (= #x00000000 (bvand (bvadd b_ack!2007 e_ack!2010) #x00000001)))
(assert (= #x00000000 (bvand (bvadd c_ack!2008 f_ack!2011) #x00000001)))
(assert (= #x00000000 (bvadd d_ack!2009 e_ack!2010 f_ack!2011)))
(assert (= #x00000000 d_ack!2009))
(assert (= #x00000000 e_ack!2010))
(assert (= #x00000000 f_ack!2011))
(assert (not (= #x00000002 (bvsrem (bvadd a_ack!2012 b_ack!2007 c_ack!2008) #x00000004))))
(assert (let ((a!1 (bvslt (bvsub (bvsdiv (bvadd b_ack!2007 e_ack!2010) #x00000002)
                         (bvsdiv (bvsub c_ack!2008 f_ack!2011) #x00000002))
                  #x00000000)))
  (not a!1)))
(assert (let ((a!1 (bvslt (bvsub (bvsdiv (bvsub a_ack!2012 d_ack!2009) #x00000002)
                         (bvsdiv (bvadd c_ack!2008 f_ack!2011) #x00000002))
                  (bvsub (bvsdiv (bvadd b_ack!2007 e_ack!2010) #x00000002)
                         (bvsdiv (bvsub c_ack!2008 f_ack!2011) #x00000002)))))
  (not a!1)))
(assert (let ((a!1 (bvslt (bvsdiv (bvsub (bvadd a_ack!2012 b_ack!2007) c_ack!2008)
                          #x00000002)
                  (bvsdiv (bvsub a_ack!2012 d_ack!2009) #x00000002))))
  (not a!1)))
(assert (not (bvslt (bvsdiv (bvsub a_ack!2012 d_ack!2009) #x00000002)
            (bvsdiv (bvadd b_ack!2007 e_ack!2010) #x00000002))))
(assert (let ((a!1 (bvult a_ack!2012
                  (bvsdiv (bvsub (bvadd a_ack!2012 b_ack!2007) c_ack!2008)
                          #x00000002))))
  (not a!1)))
(assert (= (bvsdiv (bvsub (bvadd a_ack!2012 b_ack!2007) c_ack!2008) #x00000002)
   a_ack!2012))
(assert (let ((a!1 (bvult b_ack!2007
                  (bvsdiv (bvsub (bvadd a_ack!2012 b_ack!2007) c_ack!2008)
                          #x00000002))))
  (not a!1)))
(assert (= (bvsdiv (bvsub (bvadd a_ack!2012 b_ack!2007) c_ack!2008) #x00000002)
   b_ack!2007))
(assert (let ((a!1 (bvadd #x00000001
                  (bvsdiv (bvadd (bvadd a_ack!2012 b_ack!2007) c_ack!2008)
                          #x00000002))))
(let ((a!2 (bvult a!1
                  (bvsdiv (bvsub (bvadd a_ack!2012 b_ack!2007) c_ack!2008)
                          #x00000002))))
  (not a!2))))
(assert (let ((a!1 (bvadd #x00000001
                  (bvsdiv (bvadd (bvadd a_ack!2012 b_ack!2007) c_ack!2008)
                          #x00000002))))
(let ((a!2 (= (bvsdiv (bvsub (bvadd a_ack!2012 b_ack!2007) c_ack!2008)
                      #x00000002)
              a!1)))
  (not a!2))))
(assert (= #x00000000
   (bvsdiv (bvsub (bvadd a_ack!2012 b_ack!2007) c_ack!2008) #x00000002)))
(assert (not (bvult a_ack!2012 (bvsdiv (bvsub a_ack!2012 d_ack!2009) #x00000002))))
(assert (= (bvsdiv (bvsub a_ack!2012 d_ack!2009) #x00000002) a_ack!2012))
(assert (not (bvult b_ack!2007 (bvsdiv (bvsub b_ack!2007 e_ack!2010) #x00000002))))
(assert (= (bvsdiv (bvsub b_ack!2007 e_ack!2010) #x00000002) b_ack!2007))
(assert (not (bvult c_ack!2008 (bvsdiv (bvadd c_ack!2008 f_ack!2011) #x00000002))))
(assert (= (bvsdiv (bvadd c_ack!2008 f_ack!2011) #x00000002) c_ack!2008))
(assert (bvsle (bvsub (bvsdiv (bvsub a_ack!2012 d_ack!2009) #x00000002)
              (bvsdiv (bvadd c_ack!2008 f_ack!2011) #x00000002))
       (bvsdiv (bvadd b_ack!2007 e_ack!2010) #x00000002)))
(assert (let ((a!1 (bvult (bvsdiv (bvsub (bvadd a_ack!2012 b_ack!2007) c_ack!2008)
                          #x00000002)
                  (bvsub (bvsdiv (bvsub a_ack!2012 d_ack!2009) #x00000002)
                         (bvsdiv (bvadd c_ack!2008 f_ack!2011) #x00000002)))))
  (not a!1)))
(assert (= (bvsub (bvsdiv (bvsub a_ack!2012 d_ack!2009) #x00000002)
          (bvsdiv (bvadd c_ack!2008 f_ack!2011) #x00000002))
   (bvsdiv (bvsub (bvadd a_ack!2012 b_ack!2007) c_ack!2008) #x00000002)))
(assert (let ((a!1 (bvsub (bvsdiv (bvsub a_ack!2012 d_ack!2009) #x00000002)
                  (bvsub (bvsdiv (bvsub a_ack!2012 d_ack!2009) #x00000002)
                         (bvsdiv (bvadd c_ack!2008 f_ack!2011) #x00000002)))))
(let ((a!2 (bvult (bvsdiv (bvadd (bvsub a_ack!2012 b_ack!2007) c_ack!2008)
                          #x00000002)
                  a!1)))
  (not a!2))))
(assert (let ((a!1 (bvsub (bvsdiv (bvsub a_ack!2012 d_ack!2009) #x00000002)
                  (bvsub (bvsdiv (bvsub a_ack!2012 d_ack!2009) #x00000002)
                         (bvsdiv (bvadd c_ack!2008 f_ack!2011) #x00000002)))))
(let ((a!2 (= a!1
              (bvsdiv (bvadd (bvsub a_ack!2012 b_ack!2007) c_ack!2008)
                      #x00000002))))
  (not a!2))))

(check-sat)
(exit)
